(declare-const |havoc:3:58:255| Int)
(declare-const |main____CPAchecker_TMP_0':141:162:169:251:259| Int)
(declare-const __VERIFIER_assert__cond___16 Int)
(declare-const havoc Int)
(declare-const |__VERIFIER_assert__cond___16':144:164:171:253:261| Int)
(declare-const |K:158:159:166:248:256| Int)
(declare-const |main__t':140:160:167:249:257| Int)
(declare-const |__tmp_383_0':139:163:170:252:260| Int)
(declare-const |__VERIFIER_assert__cond___15':143:161:168:250:258| Int)
(declare-const main____CPAchecker_TMP_0___0 Int)
(declare-const |main____CPAchecker_TMP_0___0':142:165:172:254:262| Int)
(declare-const __VERIFIER_assert__cond___15 Int)
(assert (and (<= (+ (- havoc) 1) 0) (not (= (+ (- havoc) 1) 0))
               (= |havoc:3:58:255| 0)
               (not (= (ite (<= (+ (- havoc) 1) 0) 1 0) 0))
               (or (not (<= (- |K:158:159:166:248:256|) 0))
                     (= (+ |main__t':140:160:167:249:257|
                             (- |K:158:159:166:248:256|)) 0))
               (or (not (and (<= (- |K:158:159:166:248:256|) 0)
                               (<= |K:158:159:166:248:256| 0)))
                     (= (+ (- __VERIFIER_assert__cond___15)
                             |__VERIFIER_assert__cond___15':143:161:168:250:258|) 0))
               (or (not (<= (+ (- |K:158:159:166:248:256|) 1) 0))
                     (= (+ |__VERIFIER_assert__cond___15':143:161:168:250:258|
                             -1) 0))
               (or (not (and (<= (- |K:158:159:166:248:256|) 0)
                               (<= |K:158:159:166:248:256| 0)))
                     (= (+ |main____CPAchecker_TMP_0':141:162:169:251:259|
                             (- |havoc:3:58:255|)) 0))
               (or (not (<= (+ (- |K:158:159:166:248:256|) 1) 0))
                     (= |main____CPAchecker_TMP_0':141:162:169:251:259| 0))
               (or (not (and (<= (- |K:158:159:166:248:256|) 0)
                               (<= |K:158:159:166:248:256| 0)))
                     (= (+ |__tmp_383_0':139:163:170:252:260|
                             (- |havoc:3:58:255|)) 0))
               (or (not (<= (+ (- |K:158:159:166:248:256|) 1) 0))
                     (= |__tmp_383_0':139:163:170:252:260| 0))
               (or (not (and (<= (- |K:158:159:166:248:256|) 0)
                               (<= |K:158:159:166:248:256| 0)))
                     (= (+ (- __VERIFIER_assert__cond___16)
                             |__VERIFIER_assert__cond___16':144:164:171:253:261|) 0))
               (or (not (<= (+ (- |K:158:159:166:248:256|) 1) 0))
                     (= (+ |__VERIFIER_assert__cond___16':144:164:171:253:261|
                             -1) 0))
               (or (not (and (<= (- |K:158:159:166:248:256|) 0)
                               (<= |K:158:159:166:248:256| 0)))
                     (= (+ (- main____CPAchecker_TMP_0___0)
                             |main____CPAchecker_TMP_0___0':142:165:172:254:262|) 0))
               (or (not (<= (+ (- |K:158:159:166:248:256|) 1) 0))
                     (= |main____CPAchecker_TMP_0___0':142:165:172:254:262| 0))
               (or (and (= |K:158:159:166:248:256| 0)
                          (= (+ __VERIFIER_assert__cond___16
                                  (- |__VERIFIER_assert__cond___16':144:164:171:253:261|)) 0)
                          (= (+ __VERIFIER_assert__cond___15
                                  (- |__VERIFIER_assert__cond___15':143:161:168:250:258|)) 0)
                          (= (+ main____CPAchecker_TMP_0___0
                                  (- |main____CPAchecker_TMP_0___0':142:165:172:254:262|)) 0)
                          (= (+ (- |main____CPAchecker_TMP_0':141:162:169:251:259|)
                                  |havoc:3:58:255|) 0)
                          (= (- |main__t':140:160:167:249:257|) 0)
                          (= (+ (- |__tmp_383_0':139:163:170:252:260|)
                                  |havoc:3:58:255|) 0))
                     (and (<= (+ (- |K:158:159:166:248:256|) 1) 0)
                            (= |havoc:3:58:255| 0) (= |havoc:3:58:255| 0)
                            (<= (+ (- havoc) 3) 0)
                            (= (+ |__VERIFIER_assert__cond___16':144:164:171:253:261|
                                    -1) 0)
                            (= (+ |__VERIFIER_assert__cond___15':143:161:168:250:258|
                                    -1) 0)
                            (= |main____CPAchecker_TMP_0':141:162:169:251:259| 0)
                            (= |main____CPAchecker_TMP_0___0':142:165:172:254:262| 0)
                            (= |__tmp_383_0':139:163:170:252:260| 0)
                            (<= (+ |main__t':140:160:167:249:257| (- havoc) 2) 0)
                            (<= (+ (- |main__t':140:160:167:249:257|) 1) 0)))
               (<= (- |K:158:159:166:248:256|) 0)
               (= |__tmp_383_0':139:163:170:252:260| 0)
               (= |main____CPAchecker_TMP_0':141:162:169:251:259| 0)
               (<= (- |main__t':140:160:167:249:257|) 0)
               (< (+ (- havoc) 1) 0) (= |__tmp_383_0':139:163:170:252:260| 0)
               (= |main____CPAchecker_TMP_0':141:162:169:251:259| 0)
               (= (+ |main__t':140:160:167:249:257| (- havoc) 2) 0)
               (= (ite (<= (+ (- |main__t':140:160:167:249:257|) -1) 0) 1 0) 0)))
(check-sat)
